
n_res = 8;
rcap = [39, 43, 41, 44, 1553, 1649, 1490, 1626];
rtype = [1, 1, 1, 1, 2, 2, 2, 2];
n_tasks = 100;
modes =  [{1, 2, 3}, {4, 5, 6}, {7, 8, 9}, {10, 11, 12}, {13, 14, 15}, {16, 17, 18}, {19, 20, 21}, {22, 23, 24}, {25, 26, 27}, {28, 29, 30}, {31, 32, 33}, {34, 35, 36}, {37, 38, 39}, {40, 41, 42}, {43, 44, 45}, {46, 47, 48}, {49, 50, 51}, {52, 53, 54}, {55, 56, 57}, {58, 59, 60}, {61, 62, 63}, {64, 65, 66}, {67, 68, 69}, {70, 71, 72}, {73, 74, 75}, {76, 77, 78}, {79, 80, 81}, {82, 83, 84}, {85, 86, 87}, {88, 89, 90}, {91, 92, 93}, {94, 95, 96}, {97, 98, 99}, {100, 101, 102}, {103, 104, 105}, {106, 107, 108}, {109, 110, 111}, {112, 113, 114}, {115, 116, 117}, {118, 119, 120}, {121, 122, 123}, {124, 125, 126}, {127, 128, 129}, {130, 131, 132}, {133, 134, 135}, {136, 137, 138}, {139, 140, 141}, {142, 143, 144}, {145, 146, 147}, {148, 149, 150}, {151, 152, 153}, {154, 155, 156}, {157, 158, 159}, {160, 161, 162}, {163, 164, 165}, {166, 167, 168}, {169, 170, 171}, {172, 173, 174}, {175, 176, 177}, {178, 179, 180}, {181, 182, 183}, {184, 185, 186}, {187, 188, 189}, {190, 191, 192}, {193, 194, 195}, {196, 197, 198}, {199, 200, 201}, {202, 203, 204}, {205, 206, 207}, {208, 209, 210}, {211, 212, 213}, {214, 215, 216}, {217, 218, 219}, {220, 221, 222}, {223, 224, 225}, {226, 227, 228}, {229, 230, 231}, {232, 233, 234}, {235, 236, 237}, {238, 239, 240}, {241, 242, 243}, {244, 245, 246}, {247, 248, 249}, {250, 251, 252}, {253, 254, 255}, {256, 257, 258}, {259, 260, 261}, {262, 263, 264}, {265, 266, 267}, {268, 269, 270}, {271, 272, 273}, {274, 275, 276}, {277, 278, 279}, {280, 281, 282}, {283, 284, 285}, {286, 287, 288}, {289, 290, 291}, {292, 293, 294}, {295, 296, 297}, {298, 299, 300}];
succ =  [{51, 40, 39, 36, 35, 34, 28, 27, 24, 20, 16, 15}, {46, 45, 40, 36, 33, 25, 21, 20, 18, 14}, {51, 40, 39, 36, 33, 32, 25, 24, 23, 21, 20, 16}, {60, 45, 44, 42, 41, 40, 39, 38, 36, 35, 34, 33, 32, 30, 21}, {59, 51, 46, 43, 39, 34, 32, 25, 23, 20, 16}, {46, 41, 35, 33, 32, 31, 30, 19}, {51, 44, 43, 39, 36, 34, 30, 27, 24, 20}, {51, 46, 45, 44, 43, 41, 40, 27, 23, 18}, {43, 40, 36, 34, 26, 23, 16}, {51, 45, 44, 42, 38, 36, 30, 26, 25}, {60, 52, 46, 43, 42, 40, 38, 36, 31, 26}, {52, 51, 46, 44, 43, 42, 35, 25, 20}, {52, 43, 42, 38, 35, 28, 23, 21}, {56, 44, 43, 41, 34, 32, 24, 23}, {44, 43, 41, 25, 23}, {82, 61, 60, 58, 54, 53, 52, 48, 47, 45, 44, 42, 31}, {82, 71, 60, 58, 56, 55, 48, 44, 36, 31}, {82, 64, 60, 58, 55, 54, 53, 52, 48, 42, 37, 34}, {100, 76, 74, 67, 60, 58, 51, 50, 44, 42, 38, 36}, {76, 70, 64, 60, 58, 55, 50, 49, 48, 47, 41, 38}, {82, 71, 65, 61, 59, 58, 55, 48, 47, 31}, {100, 76, 74, 73, 64, 54, 53, 52, 50, 48, 44, 38}, {71, 61, 60, 58, 55, 53, 48, 47, 31}, {82, 71, 65, 61, 54, 53, 52, 48, 31}, {82, 65, 60, 56, 55, 48, 31}, {81, 73, 69, 65, 62, 58, 48, 41, 35}, {65, 59, 53, 48, 31}, {100, 64, 61, 60, 59, 58, 57, 47, 44, 37}, {100, 82, 79, 74, 73, 71, 68, 67, 65, 64, 63, 62, 61, 59, 57, 56, 55, 53, 47}, {100, 82, 76, 70, 66, 65, 63, 62, 61, 57, 55, 54, 48, 47}, {100, 70, 69, 64, 62, 57, 49, 37}, {70, 69, 64, 62, 58, 52, 37}, {99, 81, 76, 74, 71, 65, 62, 54, 49, 48, 43}, {100, 76, 74, 72, 70, 68, 66, 65, 62, 57, 49, 47}, {100, 97, 82, 76, 71, 68, 66, 64, 57, 56, 53, 50, 49}, {79, 73, 65, 64, 62, 59, 54, 53, 47}, {97, 95, 81, 80, 79, 76, 75, 74, 73, 68, 67, 66, 50}, {98, 97, 94, 82, 81, 79, 71, 68, 66, 65, 62, 61, 57, 56}, {99, 98, 97, 96, 95, 79, 76, 75, 67, 65, 64, 63, 61, 56}, {100, 97, 96, 80, 79, 76, 74, 73, 69, 66, 64, 50}, {98, 97, 90, 82, 79, 72, 57, 53}, {98, 96, 93, 92, 89, 81, 79, 77, 71, 68, 65, 56}, {97, 92, 91, 89, 79, 75, 72, 70, 68, 66, 63}, {97, 95, 94, 93, 92, 89, 86, 79, 78, 77, 72, 70, 69}, {97, 95, 93, 90, 87, 81, 80, 79, 78, 75, 70, 68, 64}, {99, 97, 96, 94, 93, 92, 90, 89, 86, 75, 72, 66}, {99, 98, 97, 96, 95, 89, 88, 87, 86, 85, 81, 78, 77, 69}, {94, 93, 89, 87, 80, 79, 78, 77, 75, 68, 67}, {98, 92, 91, 90, 89, 87, 86, 79, 75, 63}, {99, 98, 92, 90, 89, 86, 78, 72, 63}, {99, 92, 89, 88, 86, 79, 78, 77, 75, 69}, {95, 90, 85, 80, 57}, {96, 95, 94, 93, 91, 89, 88, 84, 80, 77, 75}, {96, 85, 78, 72, 69}, {99, 91, 90, 86, 85, 81, 78, 77}, {91, 90, 85, 80, 78, 72}, {93, 92, 91, 89, 87, 78, 77}, {93, 92, 86, 85, 79, 78, 77}, {98, 95, 89, 87, 86, 81, 78}, {90, 89, 85, 84, 79, 73}, {91, 90, 85, 80, 72}, {95, 89, 87, 85, 78, 77}, {94, 93, 88, 85, 84, 77}, {92, 89, 88, 86, 85, 83}, {87, 85, 84, 83, 80}, {88, 85, 78, 77}, {92, 91, 90, 85, 83}, {86, 85, 84, 83}, {91, 90, 84, 83}, {96, 88, 85, 83}, {95, 83, 78}, {88, 87, 84}, {86, 77}, {94, 77}, {85, 83}, {87, 85}, {83}, {84}, {83}, {86}, {83}, {92}, {}, {}, {}, {}, {}, {}, {}, {}, {}, {}, {}, {}, {}, {}, {}, {}, {}, {}];
n_opt = 300;
dur = [3, 6, 10, 9, 15, 25, 6, 23, 28, 2, 8, 18, 11, 15, 29, 23, 26, 29, 1, 22, 26, 1, 23, 29, 8, 15, 21, 7, 8, 17, 9, 18, 22, 1, 5, 8, 12, 14, 28, 11, 15, 23, 19, 20, 22, 23, 25, 27, 4, 26, 28, 15, 16, 23, 13, 26, 30, 1, 4, 7, 5, 11, 13, 2, 14, 15, 18, 20, 24, 8, 19, 26, 16, 19, 29, 2, 12, 19, 4, 15, 23, 6, 22, 30, 10, 11, 12, 14, 15, 25, 16, 18, 20, 14, 22, 30, 7, 15, 24, 1, 3, 11, 3, 6, 13, 3, 15, 28, 1, 28, 30, 7, 11, 15, 9, 24, 30, 26, 27, 28, 4, 17, 22, 7, 17, 19, 8, 22, 30, 1, 11, 25, 20, 29, 30, 6, 8, 9, 9, 18, 26, 10, 25, 28, 22, 25, 28, 4, 8, 14, 13, 14, 23, 12, 22, 27, 4, 13, 23, 6, 7, 18, 2, 13, 26, 13, 18, 19, 1, 6, 21, 15, 24, 28, 3, 13, 15, 3, 4, 5, 3, 15, 21, 1, 5, 27, 24, 25, 27, 3, 8, 12, 21, 26, 30, 2, 9, 18, 2, 9, 12, 7, 8, 25, 4, 13, 20, 3, 15, 26, 8, 21, 28, 4, 7, 15, 6, 25, 27, 11, 12, 17, 1, 10, 26, 8, 20, 27, 2, 4, 11, 15, 20, 27, 14, 22, 25, 2, 12, 23, 17, 18, 21, 6, 27, 29, 6, 11, 18, 20, 22, 27, 11, 19, 20, 8, 24, 28, 19, 21, 29, 2, 21, 23, 8, 21, 28, 14, 19, 30, 3, 15, 25, 15, 18, 27, 10, 19, 20, 6, 11, 18, 4, 18, 22, 1, 24, 28, 11, 22, 26, 16, 17, 29, 2, 18, 30, 1, 16, 20];
rreq = [|5, 4, 4, 2, 1, 1, 3, 1, 1, 2, 2, 2, 5, 4, 4, 3, 2, 2, 3, 2, 2, 4, 4, 4, 5, 5, 5, 1, 1, 1, 1, 1, 1, 3, 3, 2, 3, 2, 2, 4, 3, 3, 5, 3, 3, 2, 2, 2, 3, 2, 2, 3, 2, 2, 2, 1, 1, 3, 3, 3, 5, 5, 5, 2, 1, 1, 3, 2, 2, 4, 3, 2, 1, 1, 1, 5, 3, 3, 5, 3, 2, 2, 2, 2, 4, 3, 3, 2, 2, 2, 4, 4, 4, 4, 4, 4, 5, 4, 3, 4, 4, 4, 3, 3, 3, 4, 3, 3, 4, 2, 2, 3, 3, 2, 5, 3, 1, 5, 3, 2, 3, 3, 3, 3, 3, 3, 4, 3, 1, 3, 3, 2, 5, 4, 4, 4, 2, 2, 4, 3, 2, 5, 4, 3, 4, 4, 4, 3, 2, 2, 2, 1, 1, 3, 2, 2, 4, 3, 2, 3, 2, 2, 5, 4, 3, 2, 1, 1, 4, 3, 3, 3, 3, 2, 4, 3, 3, 3, 1, 1, 5, 2, 2, 4, 3, 2, 4, 3, 2, 3, 1, 1, 4, 4, 4, 1, 1, 1, 3, 2, 1, 3, 2, 2, 3, 1, 1, 4, 4, 4, 3, 3, 3, 5, 2, 1, 3, 1, 1, 5, 2, 1, 4, 4, 4, 1, 1, 1, 5, 4, 4, 3, 2, 2, 5, 2, 2, 5, 5, 5, 2, 1, 1, 4, 3, 2, 3, 3, 3, 5, 2, 2, 4, 2, 1, 1, 1, 1, 5, 4, 3, 3, 3, 2, 4, 3, 3, 3, 3, 3, 4, 4, 4, 4, 4, 4, 5, 5, 5, 5, 4, 3, 2, 2, 2, 5, 4, 3, 4, 4, 4, 3, 2, 2, 1, 1, 1, 1, 1, 1
 |3, 2, 2, 3, 3, 3, 1, 1, 1, 5, 4, 3, 4, 2, 1, 2, 2, 2, 5, 4, 4, 4, 4, 4, 2, 1, 1, 3, 2, 2, 4, 4, 4, 5, 4, 4, 2, 2, 2, 5, 3, 2, 1, 1, 1, 3, 1, 1, 5, 3, 3, 5, 5, 5, 4, 4, 4, 5, 3, 3, 3, 2, 2, 3, 2, 2, 1, 1, 1, 4, 4, 3, 2, 2, 2, 4, 4, 3, 2, 1, 1, 5, 5, 5, 5, 3, 2, 4, 3, 2, 3, 2, 2, 2, 1, 1, 4, 4, 4, 3, 3, 3, 4, 3, 3, 3, 3, 3, 1, 1, 1, 3, 2, 2, 4, 3, 3, 3, 2, 1, 4, 4, 3, 4, 4, 3, 3, 3, 1, 4, 2, 2, 1, 1, 1, 2, 2, 2, 3, 2, 2, 3, 3, 3, 3, 2, 1, 3, 3, 3, 5, 5, 5, 4, 4, 4, 3, 2, 2, 2, 2, 1, 2, 2, 2, 4, 4, 4, 3, 2, 2, 4, 4, 3, 4, 4, 4, 3, 3, 3, 4, 4, 4, 4, 3, 3, 2, 2, 2, 5, 4, 2, 5, 4, 3, 3, 3, 1, 4, 3, 2, 4, 2, 2, 3, 3, 3, 4, 2, 2, 4, 3, 1, 4, 3, 2, 2, 2, 1, 5, 5, 5, 3, 3, 3, 4, 2, 2, 1, 1, 1, 1, 1, 1, 2, 2, 2, 4, 4, 4, 3, 3, 2, 2, 2, 2, 4, 4, 2, 5, 3, 2, 4, 2, 2, 5, 4, 4, 4, 2, 1, 3, 3, 2, 2, 1, 1, 1, 1, 1, 2, 2, 2, 4, 4, 4, 3, 3, 2, 4, 2, 1, 3, 2, 1, 5, 3, 3, 3, 2, 1, 3, 3, 2, 3, 3, 3, 2, 1, 1
 |5, 5, 5, 1, 1, 1, 2, 2, 2, 4, 3, 3, 5, 4, 2, 4, 3, 2, 5, 4, 2, 4, 2, 2, 2, 1, 1, 1, 1, 1, 3, 2, 2, 3, 2, 2, 1, 1, 1, 3, 3, 3, 2, 2, 2, 3, 3, 2, 4, 3, 3, 3, 3, 3, 5, 4, 4, 3, 2, 2, 4, 4, 4, 3, 3, 3, 4, 4, 4, 2, 2, 2, 2, 1, 1, 3, 3, 2, 2, 2, 1, 3, 2, 2, 4, 4, 4, 4, 3, 3, 4, 3, 2, 1, 1, 1, 5, 3, 2, 5, 4, 4, 4, 4, 3, 4, 3, 2, 3, 2, 2, 3, 3, 3, 3, 3, 3, 1, 1, 1, 4, 3, 2, 4, 4, 4, 3, 3, 3, 4, 3, 3, 5, 4, 3, 1, 1, 1, 3, 3, 3, 4, 4, 4, 3, 2, 2, 3, 3, 2, 4, 2, 2, 3, 2, 2, 4, 4, 2, 4, 3, 3, 4, 4, 3, 4, 2, 1, 1, 1, 1, 4, 3, 2, 1, 1, 1, 4, 4, 4, 4, 3, 2, 5, 4, 4, 5, 4, 3, 4, 4, 4, 5, 4, 3, 2, 1, 1, 3, 3, 2, 5, 3, 2, 3, 3, 3, 2, 2, 2, 3, 3, 3, 1, 1, 1, 4, 4, 3, 3, 3, 3, 5, 5, 5, 1, 1, 1, 3, 3, 3, 4, 3, 2, 3, 2, 2, 4, 3, 3, 4, 3, 2, 2, 2, 1, 4, 4, 4, 4, 3, 1, 2, 2, 2, 4, 2, 2, 2, 2, 2, 2, 1, 1, 4, 4, 4, 4, 3, 2, 3, 2, 2, 4, 4, 4, 5, 4, 4, 4, 4, 4, 5, 5, 5, 3, 2, 1, 5, 4, 4, 3, 2, 2, 3, 1, 1, 3, 1, 1
 |2, 2, 1, 5, 3, 3, 2, 2, 2, 3, 1, 1, 5, 3, 2, 4, 2, 2, 4, 4, 4, 4, 3, 1, 3, 3, 3, 5, 4, 2, 2, 2, 2, 3, 3, 2, 5, 3, 2, 5, 3, 3, 2, 2, 2, 2, 2, 2, 5, 3, 2, 4, 4, 4, 3, 3, 3, 3, 2, 1, 3, 3, 2, 3, 2, 2, 5, 4, 4, 3, 3, 2, 5, 3, 2, 4, 2, 2, 3, 2, 2, 4, 3, 2, 3, 2, 2, 5, 4, 2, 3, 2, 2, 3, 1, 1, 4, 4, 4, 5, 4, 2, 5, 5, 5, 3, 2, 2, 5, 4, 3, 4, 3, 1, 3, 1, 1, 3, 2, 1, 1, 1, 1, 3, 3, 3, 3, 2, 2, 4, 3, 1, 4, 2, 1, 2, 1, 1, 3, 3, 1, 3, 1, 1, 3, 2, 2, 1, 1, 1, 5, 3, 2, 4, 4, 4, 2, 2, 2, 4, 3, 3, 2, 2, 1, 4, 3, 3, 2, 1, 1, 3, 2, 2, 5, 4, 4, 4, 2, 2, 1, 1, 1, 4, 2, 2, 3, 2, 1, 3, 2, 2, 4, 3, 3, 1, 1, 1, 2, 2, 2, 2, 2, 2, 2, 1, 1, 5, 4, 3, 3, 2, 2, 3, 3, 3, 3, 2, 2, 4, 2, 2, 1, 1, 1, 3, 3, 3, 3, 2, 2, 3, 3, 1, 1, 1, 1, 1, 1, 1, 4, 3, 3, 4, 2, 2, 4, 3, 3, 4, 4, 3, 4, 4, 3, 2, 2, 2, 2, 2, 2, 4, 4, 3, 2, 1, 1, 4, 4, 4, 2, 1, 1, 2, 2, 2, 4, 2, 2, 3, 3, 1, 3, 3, 2, 2, 2, 1, 4, 3, 2, 3, 3, 2, 5, 4, 4, 4, 2, 2
 |19, 12, 6, 23, 8, 6, 25, 23, 19, 12, 6, 4, 11, 8, 7, 16, 12, 12, 29, 28, 28, 8, 4, 3, 29, 27, 27, 14, 11, 5, 28, 15, 9, 25, 24, 24, 21, 18, 18, 6, 6, 6, 18, 18, 18, 28, 28, 26, 13, 7, 6, 14, 14, 13, 11, 7, 7, 25, 18, 7, 13, 13, 13, 6, 6, 6, 10, 8, 6, 25, 22, 22, 21, 18, 14, 6, 6, 5, 20, 19, 11, 24, 12, 11, 10, 10, 8, 10, 9, 8, 5, 5, 5, 17, 9, 4, 22, 18, 16, 5, 3, 3, 22, 21, 21, 16, 15, 15, 17, 15, 15, 16, 6, 2, 21, 17, 15, 26, 25, 25, 23, 14, 11, 23, 22, 21, 15, 15, 13, 20, 16, 15, 15, 13, 12, 19, 11, 4, 12, 8, 2, 20, 17, 16, 25, 18, 9, 22, 13, 10, 12, 11, 4, 27, 26, 23, 21, 21, 19, 25, 22, 15, 21, 16, 14, 21, 14, 6, 19, 12, 9, 20, 10, 5, 30, 24, 24, 26, 22, 20, 21, 18, 17, 26, 22, 20, 21, 13, 10, 17, 9, 7, 9, 9, 8, 19, 12, 8, 15, 9, 9, 17, 10, 8, 27, 11, 5, 20, 18, 16, 19, 14, 8, 19, 13, 10, 20, 12, 8, 15, 13, 9, 16, 11, 8, 20, 13, 6, 26, 16, 12, 19, 15, 9, 27, 22, 14, 26, 22, 18, 19, 18, 18, 16, 14, 14, 14, 9, 7, 21, 20, 17, 17, 16, 15, 19, 19, 14, 20, 14, 11, 26, 21, 21, 17, 12, 12, 23, 18, 8, 18, 17, 17, 20, 14, 9, 14, 14, 14, 9, 7, 4, 26, 20, 17, 26, 25, 24, 23, 21, 20, 19, 12, 10, 23, 21, 21, 19, 11, 5
 |10, 7, 7, 26, 25, 25, 27, 26, 26, 17, 13, 7, 19, 19, 15, 20, 15, 8, 17, 12, 6, 7, 7, 2, 18, 15, 7, 27, 19, 10, 20, 16, 8, 20, 19, 19, 7, 7, 7, 1, 1, 1, 19, 15, 11, 27, 26, 23, 22, 8, 8, 24, 22, 21, 17, 15, 12, 21, 19, 16, 25, 20, 15, 16, 12, 5, 21, 18, 10, 16, 13, 13, 25, 24, 22, 16, 13, 5, 20, 19, 17, 20, 19, 18, 13, 12, 7, 23, 19, 9, 13, 8, 7, 26, 13, 9, 25, 23, 20, 22, 13, 8, 10, 7, 5, 22, 19, 7, 19, 15, 12, 8, 5, 5, 21, 20, 16, 5, 5, 3, 26, 25, 23, 29, 27, 27, 22, 18, 15, 26, 26, 25, 17, 11, 6, 23, 21, 19, 28, 26, 25, 13, 12, 10, 16, 7, 3, 28, 24, 22, 23, 15, 9, 20, 18, 17, 6, 4, 4, 26, 22, 22, 30, 23, 19, 13, 13, 12, 27, 27, 27, 16, 16, 11, 19, 15, 9, 26, 22, 18, 25, 22, 19, 20, 19, 14, 9, 7, 5, 17, 17, 17, 15, 9, 6, 26, 26, 25, 26, 25, 23, 26, 24, 22, 21, 18, 13, 16, 10, 8, 24, 14, 9, 26, 22, 16, 26, 18, 10, 23, 20, 18, 12, 11, 10, 5, 3, 2, 11, 11, 9, 25, 18, 16, 29, 26, 22, 25, 23, 23, 26, 22, 9, 24, 22, 19, 24, 18, 2, 21, 21, 15, 24, 20, 19, 13, 12, 12, 11, 10, 9, 11, 8, 4, 24, 12, 11, 19, 12, 11, 18, 18, 15, 21, 16, 16, 6, 5, 5, 15, 15, 14, 23, 18, 13, 24, 23, 12, 26, 25, 25, 17, 13, 13, 20, 16, 13, 30, 29, 29
 |28, 11, 9, 14, 11, 2, 22, 21, 21, 24, 22, 21, 11, 10, 10, 26, 23, 18, 26, 14, 9, 8, 8, 8, 22, 16, 9, 18, 14, 14, 16, 15, 13, 8, 6, 2, 23, 16, 12, 26, 15, 12, 15, 11, 9, 11, 6, 5, 14, 8, 4, 18, 13, 12, 30, 28, 28, 9, 8, 8, 28, 16, 6, 27, 20, 14, 24, 23, 22, 13, 12, 11, 17, 12, 7, 6, 5, 1, 11, 7, 5, 16, 12, 7, 8, 6, 6, 23, 17, 9, 11, 7, 7, 24, 9, 7, 29, 27, 26, 24, 19, 19, 20, 17, 13, 14, 9, 6, 20, 14, 11, 14, 11, 9, 13, 9, 4, 23, 19, 15, 30, 28, 28, 16, 10, 9, 25, 23, 23, 22, 20, 13, 17, 17, 17, 27, 11, 3, 10, 7, 6, 11, 11, 10, 26, 21, 18, 22, 20, 12, 26, 24, 24, 4, 4, 4, 30, 22, 19, 11, 10, 9, 19, 16, 15, 4, 3, 2, 8, 7, 6, 12, 8, 3, 13, 9, 6, 26, 25, 25, 20, 16, 13, 12, 10, 6, 20, 11, 10, 14, 11, 9, 29, 27, 26, 14, 12, 12, 25, 20, 4, 30, 23, 13, 14, 13, 8, 25, 24, 24, 18, 11, 10, 24, 18, 15, 24, 13, 2, 10, 9, 7, 19, 13, 9, 25, 14, 7, 12, 10, 7, 30, 24, 16, 27, 23, 15, 16, 13, 7, 20, 16, 16, 16, 8, 7, 11, 7, 7, 11, 7, 6, 10, 6, 5, 10, 7, 7, 15, 12, 4, 20, 14, 6, 28, 17, 10, 22, 13, 10, 11, 7, 1, 23, 14, 9, 11, 9, 7, 13, 12, 11, 27, 19, 12, 26, 22, 22, 26, 26, 23, 22, 14, 10, 21, 17, 12, 25, 24, 24
 |25, 24, 22, 17, 12, 10, 21, 20, 16, 26, 19, 14, 16, 16, 16, 26, 22, 15, 29, 29, 29, 18, 14, 12, 24, 17, 12, 24, 21, 20, 29, 28, 27, 16, 15, 14, 10, 9, 9, 29, 27, 26, 18, 18, 17, 13, 13, 12, 11, 5, 3, 29, 24, 21, 28, 25, 22, 30, 29, 28, 24, 18, 7, 27, 20, 17, 14, 11, 11, 14, 6, 2, 9, 8, 8, 15, 9, 6, 11, 9, 8, 11, 7, 7, 18, 14, 13, 6, 5, 5, 12, 8, 1, 13, 11, 8, 23, 22, 9, 19, 12, 10, 28, 28, 28, 30, 29, 29, 13, 12, 12, 12, 6, 4, 19, 15, 6, 16, 14, 12, 6, 3, 3, 20, 17, 13, 25, 17, 11, 27, 20, 18, 19, 15, 7, 23, 22, 19, 5, 5, 5, 23, 14, 9, 19, 12, 12, 22, 10, 9, 19, 12, 12, 21, 20, 18, 6, 5, 5, 23, 20, 8, 16, 15, 15, 17, 12, 12, 15, 15, 15, 19, 14, 12, 25, 22, 18, 26, 21, 21, 26, 26, 26, 24, 24, 23, 19, 15, 8, 27, 25, 23, 19, 10, 5, 11, 6, 4, 19, 15, 12, 21, 20, 20, 22, 17, 16, 26, 20, 9, 26, 26, 24, 15, 11, 5, 22, 19, 13, 17, 11, 8, 16, 9, 8, 5, 4, 3, 18, 12, 9, 24, 23, 23, 26, 25, 24, 28, 23, 14, 17, 15, 15, 15, 14, 14, 21, 21, 21, 29, 22, 19, 11, 10, 2, 20, 12, 2, 23, 18, 16, 9, 7, 6, 6, 5, 4, 23, 23, 23, 25, 22, 16, 9, 8, 8, 16, 15, 15, 30, 29, 28, 15, 9, 5, 27, 25, 19, 14, 12, 11, 8, 6, 5, 24, 22, 21, 20, 16, 14|];